
Gurobi 11.0.0 (linux64) logging started Wed Nov 29 17:12:46 2023

Set parameter LogFile to value "wlp02-m-Location-Of-Facilities-GUROBI.txt"
Gurobi Optimizer version 11.0.0 build v11.0.0rc2 (linux64 - "Ubuntu 22.04.2 LTS")

CPU model: 11th Gen Intel(R) Core(TM) i5-1135G7 @ 2.40GHz, instruction set [SSE2|AVX|AVX2|AVX512]
Thread count: 4 physical cores, 8 logical processors, using up to 8 threads

Academic license 2443615 - for non-commercial use only - registered to th___@gmail.com
Optimize a model with 212505 rows, 211800 columns and 846000 nonzeros
Model fingerprint: 0x9d18d63f
Coefficient statistics:
  Matrix range     [1e+00, 2e+01]
  Objective range  [1e+00, 1e+03]
  Bounds range     [1e+00, 1e+00]
  RHS range        [1e+00, 1e+02]
Presolve time: 0.40s
Presolved: 212505 rows, 211800 columns, 846000 nonzeros

Concurrent LP optimizer: dual simplex and barrier
Showing barrier log only...

Ordering time: 0.13s

Barrier statistics:
 Dense cols : 300
 AA' NZ     : 8.460e+05
 Factor NZ  : 1.631e+06 (roughly 200 MB of memory)
 Factor Ops : 6.194e+08 (less than 1 second per iteration)
 Threads    : 3

                  Objective                Residual
Iter       Primal          Dual         Primal    Dual     Compl     Time
   0   2.16739687e+06 -1.51680701e+05  9.01e+01 7.00e+01  4.07e+01     1s
   1   3.07869299e+05 -2.18676902e+05  1.06e+01 1.22e+01  6.53e+00     1s
   2   9.30077111e+04 -1.53746385e+05  1.58e-14 2.06e+00  9.92e-01     2s
   3   6.79815485e+04 -1.68622080e+04  7.77e-15 1.78e+00  2.20e-01     2s
   4   5.47169929e+04 -3.05201629e+03  7.16e-15 8.33e-01  1.28e-01     2s
   5   4.96422868e+04 -3.47219059e+02  5.94e-15 7.79e-02  1.00e-01     2s
   6   3.85412954e+04  1.45667595e+03  4.88e-15 3.22e-01  6.84e-02     2s
   7   3.34512343e+04  3.17867914e+03  3.77e-15 1.78e-01  5.45e-02     3s
   8   2.82917288e+04  5.93983580e+03  3.11e-15 1.61e-01  3.87e-02     3s
   9   2.58191174e+04  7.41246571e+03  3.11e-15 1.23e-01  3.14e-02     3s
  10   2.40357038e+04  8.44981324e+03  3.11e-15 1.40e-02  2.63e-02     3s
  11   2.12012111e+04  9.55339018e+03  4.00e-15 7.01e-02  1.95e-02     4s
  12   1.94344332e+04  1.04744141e+04  6.22e-15 5.45e-02  1.49e-02     4s
  13   1.79751126e+04  1.11886736e+04  9.66e-15 4.40e-02  1.12e-02     4s
  14   1.72683216e+04  1.18458114e+04  7.11e-15 2.95e-02  8.94e-03     4s
  15   1.65526816e+04  1.23357513e+04  9.33e-15 2.34e-02  6.93e-03     5s
  16   1.61713310e+04  1.27176513e+04  8.88e-15 1.41e-02  5.66e-03     5s
  17   1.58209552e+04  1.30326887e+04  1.07e-14 1.21e-02  4.55e-03     5s
  18   1.55151613e+04  1.32834379e+04  1.27e-14 1.03e-02  3.63e-03     5s
  19   1.52216531e+04  1.34328917e+04  1.13e-14 7.84e-03  2.91e-03     6s
  20   1.50357002e+04  1.35602690e+04  1.77e-14 4.48e-03  2.39e-03     6s
  21   1.49209916e+04  1.36582855e+04  1.82e-14 4.26e-03  2.04e-03     6s
  22   1.47191733e+04  1.37548904e+04  2.58e-14 3.70e-03  1.56e-03     6s
  23   1.46155837e+04  1.38179267e+04  2.26e-14 2.49e-03  1.29e-03     7s
  24   1.44715783e+04  1.38762437e+04  3.20e-14 1.89e-03  9.60e-04     7s
  25   1.44182972e+04  1.39124035e+04  3.42e-14 1.09e-03  8.14e-04     7s
  26   1.43408873e+04  1.39333986e+04  6.79e-14 8.42e-04  6.56e-04     7s
  27   1.43005017e+04  1.39487329e+04  3.42e-14 7.69e-04  5.66e-04     7s
  28   1.42536293e+04  1.39640927e+04  7.82e-14 4.97e-04  4.66e-04     8s
  29   1.42428123e+04  1.39681265e+04  7.24e-14 4.68e-04  4.42e-04     8s
  30   1.42031686e+04  1.39796393e+04  5.95e-14 3.69e-04  3.59e-04     8s
  31   1.41622041e+04  1.39902341e+04  8.87e-14 4.24e-04  2.77e-04     8s
  32   1.41344056e+04  1.39983834e+04  2.50e-13 2.13e-04  2.19e-04     9s
  33   1.41134463e+04  1.40047499e+04  2.53e-13 1.62e-04  1.75e-04     9s
  34   1.41037608e+04  1.40101519e+04  3.20e-13 1.19e-04  1.50e-04     9s
  35   1.40940699e+04  1.40142859e+04  3.08e-13 8.77e-05  1.28e-04     9s
  36   1.40892588e+04  1.40169279e+04  2.57e-13 7.33e-05  1.16e-04    10s
  37   1.40756287e+04  1.40182623e+04  2.89e-13 6.38e-05  9.20e-05    10s
  38   1.40656740e+04  1.40213550e+04  2.46e-13 5.08e-05  7.10e-05    10s
  39   1.40591929e+04  1.40225922e+04  3.08e-13 3.48e-05  5.87e-05    10s
  40   1.40523409e+04  1.40234141e+04  3.24e-13 2.96e-05  4.65e-05    11s
  41   1.40489156e+04  1.40244578e+04  3.36e-13 2.34e-05  3.93e-05    11s
  42   1.40460551e+04  1.40253459e+04  2.84e-13 3.22e-05  3.33e-05    11s
  43   1.40435735e+04  1.40259745e+04  5.31e-13 2.76e-05  2.83e-05    11s
  44   1.40408999e+04  1.40266127e+04  6.55e-13 1.82e-05  2.30e-05    11s
  45   1.40388692e+04  1.40274158e+04  5.30e-13 1.59e-05  1.84e-05    12s
  46   1.40371059e+04  1.40278034e+04  4.78e-13 8.10e-06  1.49e-05    12s
  47   1.40357263e+04  1.40284019e+04  5.32e-13 4.61e-06  1.17e-05    12s
  48   1.40353881e+04  1.40285526e+04  4.98e-13 4.11e-06  1.09e-05    12s
  49   1.40346671e+04  1.40288317e+04  5.10e-13 2.68e-06  9.33e-06    13s
  50   1.40340630e+04  1.40292246e+04  1.75e-12 1.10e-06  7.70e-06    13s
  51   1.40328696e+04  1.40293912e+04  2.34e-12 7.51e-07  5.53e-06    13s
  52   1.40320287e+04  1.40295190e+04  4.20e-12 5.15e-07  3.99e-06    13s
  53   1.40315288e+04  1.40295877e+04  1.44e-11 3.76e-07  3.08e-06    14s
  54   1.40312494e+04  1.40296455e+04  1.17e-11 2.62e-07  2.54e-06    14s
  55   1.40309168e+04  1.40296640e+04  1.16e-11 2.27e-07  1.99e-06    14s
  56   1.40307371e+04  1.40296880e+04  1.10e-11 1.82e-07  1.67e-06    15s
  57   1.40304838e+04  1.40297376e+04  3.11e-11 9.81e-08  1.18e-06    15s
  58   1.40302842e+04  1.40297514e+04  1.80e-11 7.22e-08  8.44e-07    15s
  59   1.40302434e+04  1.40297647e+04  2.67e-11 5.09e-08  7.57e-07    15s
  60   1.40301801e+04  1.40297696e+04  1.50e-11 4.33e-08  6.50e-07    16s
  61   1.40300023e+04  1.40297757e+04  3.32e-11 3.18e-08  3.59e-07    16s
  62   1.40299189e+04  1.40297859e+04  3.80e-11 1.47e-08  2.11e-07    16s
  63   1.40298915e+04  1.40297884e+04  4.25e-09 1.07e-08  1.63e-07    16s
  64   1.40298876e+04  1.40297889e+04  6.15e-09 9.94e-09  1.56e-07    17s
  65   1.40298506e+04  1.40297900e+04  2.63e-08 5.60e-08  9.62e-08    17s
  66   1.40298387e+04  1.40297938e+04  3.50e-08 1.04e-08  7.08e-08    17s
  67   1.40298317e+04  1.40297945e+04  4.92e-08 5.76e-09  5.88e-08    17s
  68   1.40298023e+04  1.40297948e+04  1.98e-08 4.78e-09  1.19e-08    17s
  69   1.40297969e+04  1.40297950e+04  9.04e-09 4.10e-09  3.05e-09    17s
  70   1.40297966e+04  1.40297964e+04  1.51e-08 2.52e-11  1.91e-10    18s

Barrier solved model in 70 iterations and 17.61 seconds (7.60 work units)
Optimal objective 1.40297966e+04

Crossover log...

  126774 variables added to crossover basis                       20s

   85357 DPushes remaining with DInf 0.0000000e+00                20s
      52 DPushes remaining with DInf 0.0000000e+00                29s
       0 DPushes remaining with DInf 0.0000000e+00                29s

       5 PPushes remaining with PInf 0.0000000e+00                29s
       0 PPushes remaining with PInf 0.0000000e+00                29s

  Push phase complete: Pinf 0.0000000e+00, Dinf 3.2364826e-11     29s


Solved with barrier
Iteration    Objective       Primal Inf.    Dual Inf.      Time
    9994    1.4029796e+04   0.000000e+00   0.000000e+00     30s

Solved in 9994 iterations and 29.53 seconds (22.26 work units)
Optimal objective  1.402979649e+04
